(set-logic QF_LRA)
(declare-fun fluent_counter_t0@1 () Real)
(declare-fun fluent_started_i0_t0@0 () Bool)
(declare-fun fluent_started_i0_t1@0 () Bool)
(declare-fun fluent_started_i0_t2@0 () Bool)
(declare-fun fluent_started_i0_t3@0 () Bool)
(declare-fun fluent_started_i0_t4@0 () Bool)
(declare-fun fluent_started_i0_t5@0 () Bool)
(declare-fun fluent_started_i0_t6@0 () Bool)
(declare-fun fluent_counter_t1@1 () Real)
(declare-fun fluent_ready_i0_t0@0 () Bool)
(declare-fun fluent_ready_i0_t1@0 () Bool)
(declare-fun fluent_ready_i0_t2@0 () Bool)
(declare-fun fluent_ready_i0_t3@0 () Bool)
(declare-fun fluent_ready_i0_t4@0 () Bool)
(declare-fun fluent_ready_i0_t5@0 () Bool)
(declare-fun fluent_ready_i0_t6@0 () Bool)
(declare-fun fluent_counter_t2@1 () Real)
(declare-fun fluent_busy_@0 () Bool)
(declare-fun fluent_counter_t3@1 () Real)
(declare-fun fluent_treated_i0_t0@0 () Bool)
(declare-fun fluent_treated_i0_t1@0 () Bool)
(declare-fun fluent_treated_i0_t2@0 () Bool)
(declare-fun fluent_treated_i0_t3@0 () Bool)
(declare-fun fluent_treated_i0_t4@0 () Bool)
(declare-fun fluent_treated_i0_t5@0 () Bool)
(declare-fun fluent_treated_i0_t6@0 () Bool)
(declare-fun fluent_counter_t5@1 () Real)
(declare-fun fluent_counter_t6@1 () Real)
(declare-fun fluent_busy_@1 () Bool)
(declare-fun __z3_0 () Real)
(declare-fun fluent_started_i0_t0@1 () Bool)
(declare-fun __z3_1 () Real)
(declare-fun fluent_started_i0_t1@1 () Bool)
(declare-fun fluent_started_i0_t2@1 () Bool)
(declare-fun fluent_started_i0_t3@1 () Bool)
(declare-fun fluent_started_i0_t4@1 () Bool)
(declare-fun fluent_started_i0_t5@1 () Bool)
(declare-fun fluent_started_i0_t6@1 () Bool)
(declare-fun fluent_counter_t0@0 () Real)
(declare-fun fluent_counter_t1@0 () Real)
(declare-fun fluent_treated_i0_t0@1 () Bool)
(declare-fun fluent_treated_i0_t1@1 () Bool)
(declare-fun fluent_counter_t2@0 () Real)
(declare-fun fluent_treated_i0_t2@1 () Bool)
(declare-fun __z3_2 () Real)
(declare-fun fluent_counter_t3@0 () Real)
(declare-fun fluent_treated_i0_t3@1 () Bool)
(declare-fun fluent_treated_i0_t4@1 () Bool)
(declare-fun fluent_counter_t4@0 () Real)
(declare-fun fluent_treated_i0_t5@1 () Bool)
(declare-fun __z3_3 () Real)
(declare-fun fluent_counter_t5@0 () Real)
(declare-fun fluent_treated_i0_t6@1 () Bool)
(declare-fun fluent_counter_t6@0 () Real)
(declare-fun __z3_4 () Real)
(declare-fun fluent_ready_i0_t0@1 () Bool)
(declare-fun fluent_ready_i0_t1@1 () Bool)
(declare-fun __z3_5 () Real)
(declare-fun fluent_ready_i0_t2@1 () Bool)
(declare-fun dur_make_treatment@1 () Real)
(declare-fun fluent_ready_i0_t3@1 () Bool)
(declare-fun __z3_6 () Real)
(declare-fun fluent_ready_i0_t4@1 () Bool)
(declare-fun t@1 () Real)
(declare-fun fluent_ready_i0_t5@1 () Bool)
(declare-fun fluent_ready_i0_t6@1 () Bool)
(declare-fun act_make_treatment@1 () Bool)
(declare-fun parameter_make_treatment_t@1 () Real)
(declare-fun __z3_7 () Real)
(declare-fun __z3_8 () Real)
(declare-fun parameter_make_treatment_i@1 () Real)
(declare-fun __z3_9 () Real)
(declare-fun __z3_10 () Real)
(declare-fun __z3_11 () Real)
(declare-fun parameter_make_treatment_next@1 () Real)
(declare-fun fluent_counter_t4@1 () Real)
(assert (let ((.def_0 (= __z3_1 __z3_11))) (let ((.def_1 (= parameter_make_treatment_t@1 7.0))) (let ((.def_2 (or .def_1 .def_0))) (let ((.def_3 (= __z3_1 fluent_counter_t6@1))) (let ((.def_4 (not .def_1))) (let ((.def_5 (or .def_4 .def_3))) (let ((.def_6 (= __z3_11 __z3_10))) (let ((.def_7 (= parameter_make_treatment_t@1 6.0))) (let ((.def_8 (or .def_7 .def_6))) (let ((.def_9 (= __z3_11 fluent_counter_t5@1))) (let ((.def_10 (not .def_7))) (let ((.def_11 (or .def_10 .def_9))) (let ((.def_12 (= __z3_10 __z3_9))) (let ((.def_13 (= parameter_make_treatment_t@1 5.0))) (let ((.def_14 (or .def_13 .def_12))) (let ((.def_15 (= __z3_10 fluent_counter_t4@1))) (let ((.def_16 (not .def_13))) (let ((.def_17 (or .def_16 .def_15))) (let ((.def_18 (= __z3_9 __z3_8))) (let ((.def_19 (= parameter_make_treatment_t@1 4.0))) (let ((.def_20 (or .def_19 .def_18))) (let ((.def_21 (= __z3_9 fluent_counter_t3@1))) (let ((.def_22 (not .def_19))) (let ((.def_23 (or .def_22 .def_21))) (let ((.def_24 (= __z3_8 __z3_7))) (let ((.def_25 (= parameter_make_treatment_t@1 3.0))) (let ((.def_26 (or .def_25 .def_24))) (let ((.def_27 (= __z3_8 fluent_counter_t2@1))) (let ((.def_28 (not .def_25))) (let ((.def_29 (or .def_28 .def_27))) (let ((.def_30 (= __z3_7 fluent_counter_t0@1))) (let ((.def_31 (= parameter_make_treatment_t@1 2.0))) (let ((.def_32 (or .def_31 .def_30))) (let ((.def_33 (= __z3_7 fluent_counter_t1@1))) (let ((.def_34 (not .def_31))) (let ((.def_35 (or .def_34 .def_33))) (let ((.def_36 (= __z3_0 __z3_6))) (let ((.def_37 (or .def_1 .def_36))) (let ((.def_38 (= __z3_0 fluent_counter_t6@0))) (let ((.def_39 (or .def_4 .def_38))) (let ((.def_40 (= __z3_6 __z3_5))) (let ((.def_41 (or .def_7 .def_40))) (let ((.def_42 (= __z3_6 fluent_counter_t5@0))) (let ((.def_43 (or .def_10 .def_42))) (let ((.def_44 (= __z3_5 __z3_4))) (let ((.def_45 (or .def_13 .def_44))) (let ((.def_46 (= __z3_5 fluent_counter_t4@0))) (let ((.def_47 (or .def_16 .def_46))) (let ((.def_48 (= __z3_4 __z3_3))) (let ((.def_49 (or .def_19 .def_48))) (let ((.def_50 (= __z3_4 fluent_counter_t3@0))) (let ((.def_51 (or .def_22 .def_50))) (let ((.def_52 (= __z3_3 __z3_2))) (let ((.def_53 (or .def_25 .def_52))) (let ((.def_54 (= __z3_3 fluent_counter_t2@0))) (let ((.def_55 (or .def_28 .def_54))) (let ((.def_56 (= __z3_2 fluent_counter_t0@0))) (let ((.def_57 (or .def_31 .def_56))) (let ((.def_58 (= __z3_2 fluent_counter_t1@0))) (let ((.def_59 (or .def_34 .def_58))) (let ((.def_60 (<= fluent_counter_t4@1 31.0))) (let ((.def_61 (<= 0.0 fluent_counter_t4@1))) (let ((.def_62 (<= fluent_counter_t3@1 31.0))) (let ((.def_63 (<= 0.0 fluent_counter_t3@1))) (let ((.def_64 (<= fluent_counter_t2@1 31.0))) (let ((.def_65 (<= 0.0 fluent_counter_t2@1))) (let ((.def_66 (= parameter_make_treatment_next@1 7.0))) (let ((.def_67 (= parameter_make_treatment_next@1 6.0))) (let ((.def_68 (= parameter_make_treatment_next@1 5.0))) (let ((.def_69 (= parameter_make_treatment_next@1 4.0))) (let ((.def_70 (= parameter_make_treatment_next@1 3.0))) (let ((.def_71 (= parameter_make_treatment_next@1 2.0))) (let ((.def_72 (= parameter_make_treatment_next@1 1.0))) (let ((.def_73 (or .def_72 .def_71 .def_70 .def_69 .def_68 .def_67 .def_66))) (let ((.def_74 (<= fluent_counter_t1@1 31.0))) (let ((.def_75 (<= 0.0 fluent_counter_t1@1))) (let ((.def_76 (<= fluent_counter_t0@1 31.0))) (let ((.def_77 (= parameter_make_treatment_i@1 0.0))) (let ((.def_78 (<= 0.0 fluent_counter_t0@1))) (let ((.def_79 (= parameter_make_treatment_t@1 1.0))) (let ((.def_80 (or .def_79 .def_31 .def_25 .def_19 .def_13 .def_7 .def_1))) (let ((.def_81 (<= fluent_counter_t6@1 31.0))) (let ((.def_82 (<= 0.0 fluent_counter_t6@1))) (let ((.def_83 (<= fluent_counter_t5@1 31.0))) (let ((.def_84 (<= 0.0 fluent_counter_t5@1))) (let ((.def_85 (and act_make_treatment@1 true .def_1))) (let ((.def_86 (= fluent_counter_t6@0 fluent_counter_t6@1))) (let ((.def_87 (not .def_86))) (let ((.def_88 (=> .def_87 .def_85))) (let ((.def_89 (and act_make_treatment@1 true .def_7))) (let ((.def_90 (= fluent_counter_t5@0 fluent_counter_t5@1))) (let ((.def_91 (not .def_90))) (let ((.def_92 (=> .def_91 .def_89))) (let ((.def_93 (and act_make_treatment@1 true .def_13))) (let ((.def_94 (= fluent_counter_t4@0 fluent_counter_t4@1))) (let ((.def_95 (not .def_94))) (let ((.def_96 (=> .def_95 .def_93))) (let ((.def_97 (and act_make_treatment@1 true .def_19))) (let ((.def_98 (= fluent_counter_t3@0 fluent_counter_t3@1))) (let ((.def_99 (not .def_98))) (let ((.def_100 (=> .def_99 .def_97))) (let ((.def_101 (and act_make_treatment@1 true .def_25))) (let ((.def_102 (= fluent_counter_t2@0 fluent_counter_t2@1))) (let ((.def_103 (not .def_102))) (let ((.def_104 (=> .def_103 .def_101))) (let ((.def_105 (and act_make_treatment@1 true .def_31))) (let ((.def_106 (= fluent_counter_t1@0 fluent_counter_t1@1))) (let ((.def_107 (not .def_106))) (let ((.def_108 (=> .def_107 .def_105))) (let ((.def_109 (and act_make_treatment@1 true .def_79))) (let ((.def_110 (= fluent_counter_t0@0 fluent_counter_t0@1))) (let ((.def_111 (not .def_110))) (let ((.def_112 (=> .def_111 .def_109))) (let ((.def_113 (+ t@1 10.0))) (let ((.def_114 (= t@1 .def_113))) (let ((.def_115 (and act_make_treatment@1 true .def_114 .def_77 .def_66))) (let ((.def_116 (= fluent_ready_i0_t6@0 fluent_ready_i0_t6@1))) (let ((.def_117 (not .def_116))) (let ((.def_118 (=> .def_117 .def_115))) (let ((.def_119 (and act_make_treatment@1 true .def_114 .def_77 .def_67))) (let ((.def_120 (= fluent_ready_i0_t5@0 fluent_ready_i0_t5@1))) (let ((.def_121 (not .def_120))) (let ((.def_122 (=> .def_121 .def_119))) (let ((.def_123 (and act_make_treatment@1 true .def_114 .def_77 .def_68))) (let ((.def_124 (= fluent_ready_i0_t4@0 fluent_ready_i0_t4@1))) (let ((.def_125 (not .def_124))) (let ((.def_126 (=> .def_125 .def_123))) (let ((.def_127 (and act_make_treatment@1 true .def_114 .def_77 .def_69))) (let ((.def_128 (= fluent_ready_i0_t3@0 fluent_ready_i0_t3@1))) (let ((.def_129 (not .def_128))) (let ((.def_130 (=> .def_129 .def_127))) (let ((.def_131 (and act_make_treatment@1 true .def_114 .def_77 .def_70))) (let ((.def_132 (= fluent_ready_i0_t2@0 fluent_ready_i0_t2@1))) (let ((.def_133 (not .def_132))) (let ((.def_134 (=> .def_133 .def_131))) (let ((.def_135 (and act_make_treatment@1 true .def_114 .def_77 .def_71))) (let ((.def_136 (= fluent_ready_i0_t1@0 fluent_ready_i0_t1@1))) (let ((.def_137 (not .def_136))) (let ((.def_138 (=> .def_137 .def_135))) (let ((.def_139 (and act_make_treatment@1 true .def_114 .def_77 .def_72))) (let ((.def_140 (= fluent_ready_i0_t0@0 fluent_ready_i0_t0@1))) (let ((.def_141 (not .def_140))) (let ((.def_142 (=> .def_141 .def_139))) (let ((.def_143 (and act_make_treatment@1 true .def_77 .def_1))) (let ((.def_144 (= fluent_started_i0_t6@0 fluent_started_i0_t6@1))) (let ((.def_145 (not .def_144))) (let ((.def_146 (=> .def_145 .def_143))) (let ((.def_147 (and act_make_treatment@1 true .def_77 .def_7))) (let ((.def_148 (= fluent_started_i0_t5@0 fluent_started_i0_t5@1))) (let ((.def_149 (not .def_148))) (let ((.def_150 (=> .def_149 .def_147))) (let ((.def_151 (and act_make_treatment@1 true .def_77 .def_13))) (let ((.def_152 (= fluent_started_i0_t4@0 fluent_started_i0_t4@1))) (let ((.def_153 (not .def_152))) (let ((.def_154 (=> .def_153 .def_151))) (let ((.def_155 (and act_make_treatment@1 true .def_77 .def_19))) (let ((.def_156 (= fluent_started_i0_t3@0 fluent_started_i0_t3@1))) (let ((.def_157 (not .def_156))) (let ((.def_158 (=> .def_157 .def_155))) (let ((.def_159 (and act_make_treatment@1 true .def_77 .def_25))) (let ((.def_160 (= fluent_started_i0_t2@0 fluent_started_i0_t2@1))) (let ((.def_161 (not .def_160))) (let ((.def_162 (=> .def_161 .def_159))) (let ((.def_163 (and act_make_treatment@1 true .def_77 .def_31))) (let ((.def_164 (= fluent_started_i0_t1@0 fluent_started_i0_t1@1))) (let ((.def_165 (not .def_164))) (let ((.def_166 (=> .def_165 .def_163))) (let ((.def_167 (and act_make_treatment@1 true .def_77 .def_79))) (let ((.def_168 (= fluent_started_i0_t0@0 fluent_started_i0_t0@1))) (let ((.def_169 (not .def_168))) (let ((.def_170 (=> .def_169 .def_167))) (let ((.def_171 (+ t@1 4.0))) (let ((.def_172 (= t@1 .def_171))) (let ((.def_173 (and act_make_treatment@1 true .def_172 .def_77 .def_1))) (let ((.def_174 (= fluent_treated_i0_t6@0 fluent_treated_i0_t6@1))) (let ((.def_175 (not .def_174))) (let ((.def_176 (=> .def_175 .def_173))) (let ((.def_177 (and act_make_treatment@1 true .def_172 .def_77 .def_7))) (let ((.def_178 (= fluent_treated_i0_t5@0 fluent_treated_i0_t5@1))) (let ((.def_179 (not .def_178))) (let ((.def_180 (=> .def_179 .def_177))) (let ((.def_181 (and act_make_treatment@1 true .def_172 .def_77 .def_13))) (let ((.def_182 (= fluent_treated_i0_t4@0 fluent_treated_i0_t4@1))) (let ((.def_183 (not .def_182))) (let ((.def_184 (=> .def_183 .def_181))) (let ((.def_185 (and act_make_treatment@1 true .def_172 .def_77 .def_19))) (let ((.def_186 (= fluent_treated_i0_t3@0 fluent_treated_i0_t3@1))) (let ((.def_187 (not .def_186))) (let ((.def_188 (=> .def_187 .def_185))) (let ((.def_189 (and act_make_treatment@1 true .def_172 .def_77 .def_25))) (let ((.def_190 (= fluent_treated_i0_t2@0 fluent_treated_i0_t2@1))) (let ((.def_191 (not .def_190))) (let ((.def_192 (=> .def_191 .def_189))) (let ((.def_193 (and act_make_treatment@1 true .def_172 .def_77 .def_31))) (let ((.def_194 (= fluent_treated_i0_t1@0 fluent_treated_i0_t1@1))) (let ((.def_195 (not .def_194))) (let ((.def_196 (=> .def_195 .def_193))) (let ((.def_197 (and act_make_treatment@1 true .def_172 .def_77 .def_79))) (let ((.def_198 (= fluent_treated_i0_t0@0 fluent_treated_i0_t0@1))) (let ((.def_199 (not .def_198))) (let ((.def_200 (=> .def_199 .def_197))) (let ((.def_201 (and act_make_treatment@1 true .def_172))) (let ((.def_202 (and act_make_treatment@1 true))) (let ((.def_203 (and .def_202 .def_201))) (let ((.def_204 (not .def_203))) (let ((.def_205 (or .def_202 .def_201))) (let ((.def_206 (= fluent_busy_@0 fluent_busy_@1))) (let ((.def_207 (not .def_206))) (let ((.def_208 (=> .def_207 .def_205))) (let ((.def_209 (<= 0.0 t@1))) (let ((.def_210 (and .def_77 .def_71))) (let ((.def_211 (or .def_210 fluent_ready_i0_t0@1))) (let ((.def_212 (not .def_210))) (let ((.def_213 (or .def_212 fluent_ready_i0_t1@1))) (let ((.def_214 (and .def_213 .def_211))) (let ((.def_215 (and .def_77 .def_70))) (let ((.def_216 (or .def_215 .def_214))) (let ((.def_217 (not .def_215))) (let ((.def_218 (or .def_217 fluent_ready_i0_t2@1))) (let ((.def_219 (and .def_218 .def_216))) (let ((.def_220 (and .def_77 .def_69))) (let ((.def_221 (or .def_220 .def_219))) (let ((.def_222 (not .def_220))) (let ((.def_223 (or .def_222 fluent_ready_i0_t3@1))) (let ((.def_224 (and .def_223 .def_221))) (let ((.def_225 (and .def_77 .def_68))) (let ((.def_226 (or .def_225 .def_224))) (let ((.def_227 (not .def_225))) (let ((.def_228 (or .def_227 fluent_ready_i0_t4@1))) (let ((.def_229 (and .def_228 .def_226))) (let ((.def_230 (and .def_77 .def_67))) (let ((.def_231 (or .def_230 .def_229))) (let ((.def_232 (not .def_230))) (let ((.def_233 (or .def_232 fluent_ready_i0_t5@1))) (let ((.def_234 (and .def_233 .def_231))) (let ((.def_235 (and .def_77 .def_66))) (let ((.def_236 (or .def_235 .def_234))) (let ((.def_237 (not .def_235))) (let ((.def_238 (or .def_237 fluent_ready_i0_t6@1))) (let ((.def_239 (and .def_238 .def_236))) (let ((.def_240 (= .def_239 true))) (let ((.def_241 (=> true .def_240))) (let ((.def_242 (and .def_114 .def_241))) (let ((.def_243 (= fluent_busy_@1 false))) (let ((.def_244 (=> true .def_243))) (let ((.def_245 (and .def_77 .def_31))) (let ((.def_246 (or .def_245 fluent_treated_i0_t0@1))) (let ((.def_247 (not .def_245))) (let ((.def_248 (or .def_247 fluent_treated_i0_t1@1))) (let ((.def_249 (and .def_248 .def_246))) (let ((.def_250 (and .def_77 .def_25))) (let ((.def_251 (or .def_250 .def_249))) (let ((.def_252 (not .def_250))) (let ((.def_253 (or .def_252 fluent_treated_i0_t2@1))) (let ((.def_254 (and .def_253 .def_251))) (let ((.def_255 (and .def_77 .def_19))) (let ((.def_256 (or .def_255 .def_254))) (let ((.def_257 (not .def_255))) (let ((.def_258 (or .def_257 fluent_treated_i0_t3@1))) (let ((.def_259 (and .def_258 .def_256))) (let ((.def_260 (and .def_77 .def_13))) (let ((.def_261 (or .def_260 .def_259))) (let ((.def_262 (not .def_260))) (let ((.def_263 (or .def_262 fluent_treated_i0_t4@1))) (let ((.def_264 (and .def_263 .def_261))) (let ((.def_265 (and .def_77 .def_7))) (let ((.def_266 (or .def_265 .def_264))) (let ((.def_267 (not .def_265))) (let ((.def_268 (or .def_267 fluent_treated_i0_t5@1))) (let ((.def_269 (and .def_268 .def_266))) (let ((.def_270 (and .def_77 .def_1))) (let ((.def_271 (or .def_270 .def_269))) (let ((.def_272 (not .def_270))) (let ((.def_273 (or .def_272 fluent_treated_i0_t6@1))) (let ((.def_274 (and .def_273 .def_271))) (let ((.def_275 (= .def_274 true))) (let ((.def_276 (=> true .def_275))) (let ((.def_277 (and .def_172 .def_276 .def_244))) (let ((.def_278 (or .def_245 fluent_started_i0_t0@1))) (let ((.def_279 (or .def_247 fluent_started_i0_t1@1))) (let ((.def_280 (and .def_279 .def_278))) (let ((.def_281 (or .def_250 .def_280))) (let ((.def_282 (or .def_252 fluent_started_i0_t2@1))) (let ((.def_283 (and .def_282 .def_281))) (let ((.def_284 (or .def_255 .def_283))) (let ((.def_285 (or .def_257 fluent_started_i0_t3@1))) (let ((.def_286 (and .def_285 .def_284))) (let ((.def_287 (or .def_260 .def_286))) (let ((.def_288 (or .def_262 fluent_started_i0_t4@1))) (let ((.def_289 (and .def_288 .def_287))) (let ((.def_290 (or .def_265 .def_289))) (let ((.def_291 (or .def_267 fluent_started_i0_t5@1))) (let ((.def_292 (and .def_291 .def_290))) (let ((.def_293 (or .def_270 .def_292))) (let ((.def_294 (or .def_272 fluent_started_i0_t6@1))) (let ((.def_295 (and .def_294 .def_293))) (let ((.def_296 (= .def_295 true))) (let ((.def_297 (=> true .def_296))) (let ((.def_298 (= fluent_busy_@1 true))) (let ((.def_299 (=> true .def_298))) (let ((.def_300 (+ __z3_0 1.0))) (let ((.def_301 (= __z3_1 .def_300))) (let ((.def_302 (=> true .def_301))) (let ((.def_303 (= t@1 t@1))) (let ((.def_304 (and .def_303 .def_302 .def_299 .def_297))) (let ((.def_305 (or .def_210 fluent_started_i0_t0@0))) (let ((.def_306 (or .def_212 fluent_started_i0_t1@0))) (let ((.def_307 (and .def_306 .def_305))) (let ((.def_308 (or .def_215 .def_307))) (let ((.def_309 (or .def_217 fluent_started_i0_t2@0))) (let ((.def_310 (and .def_309 .def_308))) (let ((.def_311 (or .def_220 .def_310))) (let ((.def_312 (or .def_222 fluent_started_i0_t3@0))) (let ((.def_313 (and .def_312 .def_311))) (let ((.def_314 (or .def_225 .def_313))) (let ((.def_315 (or .def_227 fluent_started_i0_t4@0))) (let ((.def_316 (and .def_315 .def_314))) (let ((.def_317 (or .def_230 .def_316))) (let ((.def_318 (or .def_232 fluent_started_i0_t5@0))) (let ((.def_319 (and .def_318 .def_317))) (let ((.def_320 (or .def_235 .def_319))) (let ((.def_321 (or .def_237 fluent_started_i0_t6@0))) (let ((.def_322 (and .def_321 .def_320))) (let ((.def_323 (+ t@1 dur_make_treatment@1))) (let ((.def_324 (<= .def_323 t@1))) (let ((.def_325 (< (- 1.0) .def_323))) (let ((.def_326 (and .def_325 .def_324))) (let ((.def_327 (=> .def_326 .def_322))) (let ((.def_328 (or .def_245 fluent_ready_i0_t0@0))) (let ((.def_329 (or .def_247 fluent_ready_i0_t1@0))) (let ((.def_330 (and .def_329 .def_328))) (let ((.def_331 (or .def_250 .def_330))) (let ((.def_332 (or .def_252 fluent_ready_i0_t2@0))) (let ((.def_333 (and .def_332 .def_331))) (let ((.def_334 (or .def_255 .def_333))) (let ((.def_335 (or .def_257 fluent_ready_i0_t3@0))) (let ((.def_336 (and .def_335 .def_334))) (let ((.def_337 (or .def_260 .def_336))) (let ((.def_338 (or .def_262 fluent_ready_i0_t4@0))) (let ((.def_339 (and .def_338 .def_337))) (let ((.def_340 (or .def_265 .def_339))) (let ((.def_341 (or .def_267 fluent_ready_i0_t5@0))) (let ((.def_342 (and .def_341 .def_340))) (let ((.def_343 (or .def_270 .def_342))) (let ((.def_344 (or .def_272 fluent_ready_i0_t6@0))) (let ((.def_345 (and .def_344 .def_343))) (let ((.def_346 (or .def_245 fluent_started_i0_t0@0))) (let ((.def_347 (or .def_247 fluent_started_i0_t1@0))) (let ((.def_348 (and .def_347 .def_346))) (let ((.def_349 (or .def_250 .def_348))) (let ((.def_350 (or .def_252 fluent_started_i0_t2@0))) (let ((.def_351 (and .def_350 .def_349))) (let ((.def_352 (or .def_255 .def_351))) (let ((.def_353 (or .def_257 fluent_started_i0_t3@0))) (let ((.def_354 (and .def_353 .def_352))) (let ((.def_355 (or .def_260 .def_354))) (let ((.def_356 (or .def_262 fluent_started_i0_t4@0))) (let ((.def_357 (and .def_356 .def_355))) (let ((.def_358 (or .def_265 .def_357))) (let ((.def_359 (or .def_267 fluent_started_i0_t5@0))) (let ((.def_360 (and .def_359 .def_358))) (let ((.def_361 (or .def_270 .def_360))) (let ((.def_362 (or .def_272 fluent_started_i0_t6@0))) (let ((.def_363 (and .def_362 .def_361))) (let ((.def_364 (not .def_363))) (let ((.def_365 (or .def_245 fluent_treated_i0_t0@0))) (let ((.def_366 (or .def_247 fluent_treated_i0_t1@0))) (let ((.def_367 (and .def_366 .def_365))) (let ((.def_368 (or .def_250 .def_367))) (let ((.def_369 (or .def_252 fluent_treated_i0_t2@0))) (let ((.def_370 (and .def_369 .def_368))) (let ((.def_371 (or .def_255 .def_370))) (let ((.def_372 (or .def_257 fluent_treated_i0_t3@0))) (let ((.def_373 (and .def_372 .def_371))) (let ((.def_374 (or .def_260 .def_373))) (let ((.def_375 (or .def_262 fluent_treated_i0_t4@0))) (let ((.def_376 (and .def_375 .def_374))) (let ((.def_377 (or .def_265 .def_376))) (let ((.def_378 (or .def_267 fluent_treated_i0_t5@0))) (let ((.def_379 (and .def_378 .def_377))) (let ((.def_380 (or .def_270 .def_379))) (let ((.def_381 (or .def_272 fluent_treated_i0_t6@0))) (let ((.def_382 (and .def_381 .def_380))) (let ((.def_383 (not .def_382))) (let ((.def_384 (not fluent_busy_@0))) (let ((.def_385 (and .def_31 .def_72))) (let ((.def_386 (or .def_385 false))) (let ((.def_387 (not .def_385))) (let ((.def_388 (or .def_387 false))) (let ((.def_389 (and .def_388 .def_386))) (let ((.def_390 (and .def_25 .def_72))) (let ((.def_391 (or .def_390 .def_389))) (let ((.def_392 (not .def_390))) (let ((.def_393 (or .def_392 false))) (let ((.def_394 (and .def_393 .def_391))) (let ((.def_395 (and .def_19 .def_72))) (let ((.def_396 (or .def_395 .def_394))) (let ((.def_397 (not .def_395))) (let ((.def_398 (or .def_397 false))) (let ((.def_399 (and .def_398 .def_396))) (let ((.def_400 (and .def_13 .def_72))) (let ((.def_401 (or .def_400 .def_399))) (let ((.def_402 (not .def_400))) (let ((.def_403 (or .def_402 false))) (let ((.def_404 (and .def_403 .def_401))) (let ((.def_405 (and .def_7 .def_72))) (let ((.def_406 (or .def_405 .def_404))) (let ((.def_407 (not .def_405))) (let ((.def_408 (or .def_407 false))) (let ((.def_409 (and .def_408 .def_406))) (let ((.def_410 (and .def_1 .def_72))) (let ((.def_411 (or .def_410 .def_409))) (let ((.def_412 (not .def_410))) (let ((.def_413 (or .def_412 false))) (let ((.def_414 (and .def_413 .def_411))) (let ((.def_415 (and .def_79 .def_71))) (let ((.def_416 (or .def_415 .def_414))) (let ((.def_417 (not .def_415))) (let ((.def_418 (or .def_417 true))) (let ((.def_419 (and .def_418 .def_416))) (let ((.def_420 (and .def_31 .def_71))) (let ((.def_421 (or .def_420 .def_419))) (let ((.def_422 (not .def_420))) (let ((.def_423 (or .def_422 false))) (let ((.def_424 (and .def_423 .def_421))) (let ((.def_425 (and .def_25 .def_71))) (let ((.def_426 (or .def_425 .def_424))) (let ((.def_427 (not .def_425))) (let ((.def_428 (or .def_427 false))) (let ((.def_429 (and .def_428 .def_426))) (let ((.def_430 (and .def_19 .def_71))) (let ((.def_431 (or .def_430 .def_429))) (let ((.def_432 (not .def_430))) (let ((.def_433 (or .def_432 false))) (let ((.def_434 (and .def_433 .def_431))) (let ((.def_435 (and .def_13 .def_71))) (let ((.def_436 (or .def_435 .def_434))) (let ((.def_437 (not .def_435))) (let ((.def_438 (or .def_437 false))) (let ((.def_439 (and .def_438 .def_436))) (let ((.def_440 (and .def_7 .def_71))) (let ((.def_441 (or .def_440 .def_439))) (let ((.def_442 (not .def_440))) (let ((.def_443 (or .def_442 false))) (let ((.def_444 (and .def_443 .def_441))) (let ((.def_445 (and .def_1 .def_71))) (let ((.def_446 (or .def_445 .def_444))) (let ((.def_447 (not .def_445))) (let ((.def_448 (or .def_447 false))) (let ((.def_449 (and .def_448 .def_446))) (let ((.def_450 (and .def_79 .def_70))) (let ((.def_451 (or .def_450 .def_449))) (let ((.def_452 (not .def_450))) (let ((.def_453 (or .def_452 false))) (let ((.def_454 (and .def_453 .def_451))) (let ((.def_455 (and .def_31 .def_70))) (let ((.def_456 (or .def_455 .def_454))) (let ((.def_457 (not .def_455))) (let ((.def_458 (or .def_457 true))) (let ((.def_459 (and .def_458 .def_456))) (let ((.def_460 (and .def_25 .def_70))) (let ((.def_461 (or .def_460 .def_459))) (let ((.def_462 (not .def_460))) (let ((.def_463 (or .def_462 false))) (let ((.def_464 (and .def_463 .def_461))) (let ((.def_465 (and .def_19 .def_70))) (let ((.def_466 (or .def_465 .def_464))) (let ((.def_467 (not .def_465))) (let ((.def_468 (or .def_467 false))) (let ((.def_469 (and .def_468 .def_466))) (let ((.def_470 (and .def_13 .def_70))) (let ((.def_471 (or .def_470 .def_469))) (let ((.def_472 (not .def_470))) (let ((.def_473 (or .def_472 false))) (let ((.def_474 (and .def_473 .def_471))) (let ((.def_475 (and .def_7 .def_70))) (let ((.def_476 (or .def_475 .def_474))) (let ((.def_477 (not .def_475))) (let ((.def_478 (or .def_477 false))) (let ((.def_479 (and .def_478 .def_476))) (let ((.def_480 (and .def_1 .def_70))) (let ((.def_481 (or .def_480 .def_479))) (let ((.def_482 (not .def_480))) (let ((.def_483 (or .def_482 false))) (let ((.def_484 (and .def_483 .def_481))) (let ((.def_485 (and .def_79 .def_69))) (let ((.def_486 (or .def_485 .def_484))) (let ((.def_487 (not .def_485))) (let ((.def_488 (or .def_487 false))) (let ((.def_489 (and .def_488 .def_486))) (let ((.def_490 (and .def_31 .def_69))) (let ((.def_491 (or .def_490 .def_489))) (let ((.def_492 (not .def_490))) (let ((.def_493 (or .def_492 false))) (let ((.def_494 (and .def_493 .def_491))) (let ((.def_495 (and .def_25 .def_69))) (let ((.def_496 (or .def_495 .def_494))) (let ((.def_497 (not .def_495))) (let ((.def_498 (or .def_497 true))) (let ((.def_499 (and .def_498 .def_496))) (let ((.def_500 (and .def_19 .def_69))) (let ((.def_501 (or .def_500 .def_499))) (let ((.def_502 (not .def_500))) (let ((.def_503 (or .def_502 false))) (let ((.def_504 (and .def_503 .def_501))) (let ((.def_505 (and .def_13 .def_69))) (let ((.def_506 (or .def_505 .def_504))) (let ((.def_507 (not .def_505))) (let ((.def_508 (or .def_507 false))) (let ((.def_509 (and .def_508 .def_506))) (let ((.def_510 (and .def_7 .def_69))) (let ((.def_511 (or .def_510 .def_509))) (let ((.def_512 (not .def_510))) (let ((.def_513 (or .def_512 false))) (let ((.def_514 (and .def_513 .def_511))) (let ((.def_515 (and .def_1 .def_69))) (let ((.def_516 (or .def_515 .def_514))) (let ((.def_517 (not .def_515))) (let ((.def_518 (or .def_517 false))) (let ((.def_519 (and .def_518 .def_516))) (let ((.def_520 (and .def_79 .def_68))) (let ((.def_521 (or .def_520 .def_519))) (let ((.def_522 (not .def_520))) (let ((.def_523 (or .def_522 false))) (let ((.def_524 (and .def_523 .def_521))) (let ((.def_525 (and .def_31 .def_68))) (let ((.def_526 (or .def_525 .def_524))) (let ((.def_527 (not .def_525))) (let ((.def_528 (or .def_527 false))) (let ((.def_529 (and .def_528 .def_526))) (let ((.def_530 (and .def_25 .def_68))) (let ((.def_531 (or .def_530 .def_529))) (let ((.def_532 (not .def_530))) (let ((.def_533 (or .def_532 false))) (let ((.def_534 (and .def_533 .def_531))) (let ((.def_535 (and .def_19 .def_68))) (let ((.def_536 (or .def_535 .def_534))) (let ((.def_537 (not .def_535))) (let ((.def_538 (or .def_537 true))) (let ((.def_539 (and .def_538 .def_536))) (let ((.def_540 (and .def_13 .def_68))) (let ((.def_541 (or .def_540 .def_539))) (let ((.def_542 (not .def_540))) (let ((.def_543 (or .def_542 false))) (let ((.def_544 (and .def_543 .def_541))) (let ((.def_545 (and .def_7 .def_68))) (let ((.def_546 (or .def_545 .def_544))) (let ((.def_547 (not .def_545))) (let ((.def_548 (or .def_547 false))) (let ((.def_549 (and .def_548 .def_546))) (let ((.def_550 (and .def_1 .def_68))) (let ((.def_551 (or .def_550 .def_549))) (let ((.def_552 (not .def_550))) (let ((.def_553 (or .def_552 false))) (let ((.def_554 (and .def_553 .def_551))) (let ((.def_555 (and .def_79 .def_67))) (let ((.def_556 (or .def_555 .def_554))) (let ((.def_557 (not .def_555))) (let ((.def_558 (or .def_557 false))) (let ((.def_559 (and .def_558 .def_556))) (let ((.def_560 (and .def_31 .def_67))) (let ((.def_561 (or .def_560 .def_559))) (let ((.def_562 (not .def_560))) (let ((.def_563 (or .def_562 false))) (let ((.def_564 (and .def_563 .def_561))) (let ((.def_565 (and .def_25 .def_67))) (let ((.def_566 (or .def_565 .def_564))) (let ((.def_567 (not .def_565))) (let ((.def_568 (or .def_567 false))) (let ((.def_569 (and .def_568 .def_566))) (let ((.def_570 (and .def_19 .def_67))) (let ((.def_571 (or .def_570 .def_569))) (let ((.def_572 (not .def_570))) (let ((.def_573 (or .def_572 false))) (let ((.def_574 (and .def_573 .def_571))) (let ((.def_575 (and .def_13 .def_67))) (let ((.def_576 (or .def_575 .def_574))) (let ((.def_577 (not .def_575))) (let ((.def_578 (or .def_577 true))) (let ((.def_579 (and .def_578 .def_576))) (let ((.def_580 (and .def_7 .def_67))) (let ((.def_581 (or .def_580 .def_579))) (let ((.def_582 (not .def_580))) (let ((.def_583 (or .def_582 false))) (let ((.def_584 (and .def_583 .def_581))) (let ((.def_585 (and .def_1 .def_67))) (let ((.def_586 (or .def_585 .def_584))) (let ((.def_587 (not .def_585))) (let ((.def_588 (or .def_587 false))) (let ((.def_589 (and .def_588 .def_586))) (let ((.def_590 (and .def_79 .def_66))) (let ((.def_591 (or .def_590 .def_589))) (let ((.def_592 (not .def_590))) (let ((.def_593 (or .def_592 false))) (let ((.def_594 (and .def_593 .def_591))) (let ((.def_595 (and .def_31 .def_66))) (let ((.def_596 (or .def_595 .def_594))) (let ((.def_597 (not .def_595))) (let ((.def_598 (or .def_597 false))) (let ((.def_599 (and .def_598 .def_596))) (let ((.def_600 (and .def_25 .def_66))) (let ((.def_601 (or .def_600 .def_599))) (let ((.def_602 (not .def_600))) (let ((.def_603 (or .def_602 false))) (let ((.def_604 (and .def_603 .def_601))) (let ((.def_605 (and .def_19 .def_66))) (let ((.def_606 (or .def_605 .def_604))) (let ((.def_607 (not .def_605))) (let ((.def_608 (or .def_607 false))) (let ((.def_609 (and .def_608 .def_606))) (let ((.def_610 (and .def_13 .def_66))) (let ((.def_611 (or .def_610 .def_609))) (let ((.def_612 (not .def_610))) (let ((.def_613 (or .def_612 false))) (let ((.def_614 (and .def_613 .def_611))) (let ((.def_615 (and .def_7 .def_66))) (let ((.def_616 (or .def_615 .def_614))) (let ((.def_617 (not .def_615))) (let ((.def_618 (or .def_617 true))) (let ((.def_619 (and .def_618 .def_616))) (let ((.def_620 (and .def_1 .def_66))) (let ((.def_621 (or .def_620 .def_619))) (let ((.def_622 (not .def_620))) (let ((.def_623 (or .def_622 false))) (let ((.def_624 (and .def_623 .def_621))) (let ((.def_625 (= 0.0 __z3_0))) (let ((.def_626 (and .def_625 .def_624 .def_384 .def_383 .def_364 .def_345))) (let ((.def_627 (<= t@1 t@1))) (let ((.def_628 (< (- 1.0) t@1))) (let ((.def_629 (and .def_628 .def_627))) (let ((.def_630 (=> .def_629 .def_626))) (let ((.def_631 (<= dur_make_treatment@1 15.0))) (let ((.def_632 (<= 15.0 dur_make_treatment@1))) (let ((.def_633 (and .def_632 .def_631))) (let ((.def_634 (and .def_633 .def_324 .def_630 .def_327 .def_304 .def_277 .def_242))) (let ((.def_635 (=> act_make_treatment@1 .def_634))) (let ((.def_636 (<= 0.0 fluent_counter_t1@0))) (let ((.def_637 (<= fluent_counter_t0@0 31.0))) (let ((.def_638 (<= 0.0 fluent_counter_t0@0))) (let ((.def_639 (<= fluent_counter_t6@0 31.0))) (let ((.def_640 (<= 0.0 fluent_counter_t6@0))) (let ((.def_641 (<= fluent_counter_t5@0 31.0))) (let ((.def_642 (<= 0.0 fluent_counter_t5@0))) (let ((.def_643 (<= fluent_counter_t4@0 31.0))) (let ((.def_644 (<= 0.0 fluent_counter_t4@0))) (let ((.def_645 (<= fluent_counter_t3@0 31.0))) (let ((.def_646 (<= 0.0 fluent_counter_t3@0))) (let ((.def_647 (<= fluent_counter_t2@0 31.0))) (let ((.def_648 (<= 0.0 fluent_counter_t2@0))) (let ((.def_649 (<= fluent_counter_t1@0 31.0))) (let ((.def_650 (= fluent_counter_t6@0 0.0))) (let ((.def_651 (= fluent_counter_t5@0 0.0))) (let ((.def_652 (= fluent_counter_t4@0 0.0))) (let ((.def_653 (= fluent_counter_t3@0 0.0))) (let ((.def_654 (= fluent_counter_t2@0 0.0))) (let ((.def_655 (= fluent_counter_t1@0 0.0))) (let ((.def_656 (= fluent_counter_t0@0 0.0))) (let ((.def_657 (= false false))) (let ((.def_658 (= fluent_ready_i0_t6@0 false))) (let ((.def_659 (= fluent_ready_i0_t5@0 false))) (let ((.def_660 (= fluent_ready_i0_t4@0 false))) (let ((.def_661 (= fluent_ready_i0_t3@0 false))) (let ((.def_662 (= fluent_ready_i0_t2@0 false))) (let ((.def_663 (= fluent_ready_i0_t1@0 false))) (let ((.def_664 (= fluent_started_i0_t5@0 false))) (let ((.def_665 (= fluent_started_i0_t4@0 false))) (let ((.def_666 (= fluent_started_i0_t3@0 false))) (let ((.def_667 (= fluent_started_i0_t2@0 false))) (let ((.def_668 (= fluent_started_i0_t1@0 false))) (let ((.def_669 (= fluent_started_i0_t0@0 false))) (let ((.def_670 (= fluent_treated_i0_t6@0 false))) (let ((.def_671 (= fluent_treated_i0_t5@0 false))) (let ((.def_672 (= fluent_treated_i0_t4@0 false))) (let ((.def_673 (= fluent_treated_i0_t3@0 false))) (let ((.def_674 (= fluent_treated_i0_t2@0 false))) (let ((.def_675 (= fluent_treated_i0_t1@0 false))) (let ((.def_676 (= fluent_treated_i0_t0@0 false))) (let ((.def_677 (= fluent_busy_@0 false))) (let ((.def_678 (= fluent_ready_i0_t0@0 true))) (let ((.def_679 (= fluent_started_i0_t6@0 true))) (let ((.def_680 (= true true))) (let ((.def_681 (= 0.0 0.0))) (let ((.def_682 (and .def_681 .def_680 .def_680 .def_680 .def_680 .def_680 .def_680 .def_679 .def_678 .def_677 .def_676 .def_675 .def_674 .def_673 .def_672 .def_671 .def_670 .def_669 .def_668 .def_667 .def_666 .def_665 .def_664 .def_663 .def_662 .def_661 .def_660 .def_659 .def_658 .def_657 .def_657 .def_657 .def_657 .def_657 .def_657 .def_657 .def_657 .def_657 .def_657 .def_657 .def_657 .def_657 .def_657 .def_657 .def_657 .def_657 .def_657 .def_657 .def_657 .def_657 .def_657 .def_657 .def_657 .def_657 .def_657 .def_657 .def_657 .def_657 .def_657 .def_657 .def_657 .def_657 .def_657 .def_657 .def_657 .def_657 .def_657 .def_657 .def_657 .def_657 .def_657 .def_657 .def_656 .def_655 .def_654 .def_653 .def_652 .def_651 .def_650 .def_649 .def_648 .def_647 .def_646 .def_645 .def_644 .def_643 .def_642 .def_641 .def_640 .def_639 .def_638 .def_637 .def_636 .def_635 .def_209 .def_208 .def_204 .def_200 .def_196 .def_192 .def_188 .def_184 .def_180 .def_176 .def_170 .def_166 .def_162 .def_158 .def_154 .def_150 .def_146 .def_142 .def_138 .def_134 .def_130 .def_126 .def_122 .def_118 .def_112 .def_108 .def_104 .def_100 .def_96 .def_92 .def_88 .def_84 .def_83 .def_82 .def_81 .def_80 .def_78 .def_77 .def_76 .def_75 .def_74 .def_73 .def_65 .def_64 .def_63 .def_62 .def_61 .def_60 .def_59 .def_57 .def_55 .def_53 .def_51 .def_49 .def_47 .def_45 .def_43 .def_41 .def_39 .def_37 .def_35 .def_32 .def_29 .def_26 .def_23 .def_20 .def_17 .def_14 .def_11 .def_8 .def_5 .def_2))) .def_682))))))))))))))))))))))))))))))))))))))))))))))))))))))))))))))))))))))))))))))))))))))))))))))))))))))))))))))))))))))))))))))))))))))))))))))))))))))))))))))))))))))))))))))))))))))))))))))))))))))))))))))))))))))))))))))))))))))))))))))))))))))))))))))))))))))))))))))))))))))))))))))))))))))))))))))))))))))))))))))))))))))))))))))))))))))))))))))))))))))))))))))))))))))))))))))))))))))))))))))))))))))))))))))))))))))))))))))))))))))))))))))))))))))))))))))))))))))))))))))))))))))))))))))))))))))))))))))))))))))))))))))))))))))))))))))))))))))))))))))))))))))))))))))))))))))))))))))))))))))))))))))))))))))))))))))))))))))))))))))))))))))))))))))))))))))))))))))))))))))))))))
(check-sat)
